000 000 000 001 001 000 000 000 000 000 000 000 000 000 000 000 000 001 002 045 062 021 008 008 002 003 002 002 001 000 001
000 000 000 000 002 001 000 000 000 000 000 000 000 000 000 000 000 001 002 054 065 018 004 004 002 001 001 001 001 000 001
000 000 000 000 001 001 000 000 000 000 000 000 000 000 000 000 000 001 003 013 085 011 003 000 001 001 001 001 002 000 -99
000 000 000 000 000 000 000 000 000 000 000 000 000 000 000 000 000 001 003 008 025 013 002 000 000 001 001 001 000 001 -99
000 000 000 000 000 000 000 000 000 000 000 000 000 000 000 000 000 000 002 004 013 006 001 000 000 001 003 002 001 001 -99
000 000 000 000 000 000 000 000 000 000 000 000 000 000 000 000 000 000 001 001 004 004 000 000 001 003 004 003 001 001 -99
000 000 000 000 000 000 000 000 000 000 000 000 000 000 000 000 -99 000 000 000 000 000 000 000 001 003 005 002 001 000 000
000 000 000 000 000 000 000 000 000 000 000 000 000 000 000 -99 -99 000 000 000 000 000 000 000 001 002 003 002 000 000 000
000 000 000 000 000 000 000 000 000 000 000 000 -99 -99 000 000 000 000 -99 -99 000 000 000 000 001 002 002 002 000 000 -99
000 000 000 000 000 000 000 000 000 000 000 000 -99 -99 000 000 000 000 000 -99 000 000 -99 000 001 002 002 001 000 000 000
000 000 000 000 000 -99 -99 000 000 000 000 000 000 -99 000 000 000 000 000 -99 000 000 -99 000 001 005 003 001 000 000 000
000 000 000 000 000 000 000 000 -99 000 000 000 000 -99 000 000 000 000 000 -99 000 000 -99 000 001 002 001 000 000 000 -99
000 000 000 000 000 000 000 000 -99 -99 000 000 000 -99 000 000 000 000 000 000 000 000 -99 000 000 001 001 000 -99 -99 -99
000 000 000 000 000 000 000 000 000 -99 000 000 000 000 -99 000 000 000 000 000 -99 000 002 000 000 000 000 000 -99 -99 -99
000 000 000 000 000 000 000 -99 000 -99 -99 000 000 000 -99 000 000 000 000 -99 -99 000 001 000 000 000 000 000 -99 -99 -99
000 000 000 000 000 000 000 000 -99 -99 -99 -99 000 -99 -99 -99 000 000 000 -99 -99 -99 000 000 000 -99 -99 -99 000 -99 -99
000 000 000 000 -99 000 000 000 000 -99 -99 -99 000 000 -99 000 000 000 -99 -99 -99 -99 -99 000 000 000 -99 -99 000 000 -99
000 000 000 000 000 000 000 000 000 -99 -99 -99 -99 -99 000 000 000 000 -99 -99 -99 -99 -99 000 000 000 -99 -99 000 000 -99
000 000 000 000 000 000 000 000 -99 -99 -99 -99 -99 -99 000 000 000 000 -99 -99 -99 -99 -99 000 000 000 000 -99 -99 -99 -99
000 000 000 000 000 000 000 000 000 -99 -99 -99 -99 -99 -99 -99 000 -99 -99 -99 -99 -99 -99 -99 -99 -99 -99 -99 -99 -99 -99
000 000 000 000 000 000 000 000 000 -99 -99 -99 -99 -99 -99 -99 000 000 -99 -99 -99 -99 -99 -99 -99 -99 -99 -99 -99 -99 -99
000 000 000 000 000 000 000 000 000 -99 -99 -99 -99 -99 -99 000 000 000 000 -99 -99 -99 -99 -99 -99 -99 -99 -99 -99 -99 -99
000 000 000 000 000 000 000 000 -99 -99 -99 -99 -99 -99 000 000 000 000 000 000 000 -99 -99 -99 -99 -99 -99 -99 -99 -99 -99
000 000 000 000 000 000 000 000 -99 -99 -99 -99 -99 000 000 000 000 000 000 000 000 -99 -99 -99 -99 -99 -99 -99 -99 -99 -99
000 000 000 000 000 000 000 000 000 -99 -99 -99 000 000 000 000 000 000 000 000 -99 -99 000 -99 -99 -99 -99 -99 -99 -99 -99
000 000 000 000 000 000 000 000 000 -99 -99 -99 000 000 000 000 -99 000 000 000 -99 -99 000 -99 -99 -99 -99 -99 -99 -99 -99
000 000 000 000 000 000 000 000 000 -99 -99 -99 -99 000 000 000 000 000 000 -99 -99 -99 000 -99 -99 -99 -99 -99 -99 -99 -99
000 000 000 000 000 000 000 000 000 -99 -99 -99 -99 000 000 000 000 000 000 -99 -99 000 000 -99 -99 -99 -99 -99 -99 -99 000
000 000 000 000 000 000 000 000 000 -99 -99 -99 -99 000 000 000 000 000 000 000 -99 000 -99 -99 -99 -99 -99 -99 -99 -99 000
000 000 000 000 000 000 000 000 -99 -99 -99 -99 -99 000 000 000 000 000 000 000 -99 000 -99 -99 -99 000 -99 -99 -99 -99 -99
000 000 000 000 000 000 000 -99 -99 -99 -99 -99 -99 000 000 000 000 000 000 000 -99 000 000 000 000 000 -99 -99 000 -99 -99
-99 000 000 000 000 000 -99 000 -99 -99 -99 -99 -99 -99 -99 000 000 000 000 -99 000 000 000 000 000 000 -99 -99 -99 -99 -99
-99 000 000 000 000 000 000 000 000 -99 -99 -99 -99 -99 -99 000 000 000 000 -99 000 000 000 000 000 000 -99 -99 000 -99 -99
-99 -99 000 000 -99 -99 000 -99 000 000 -99 -99 000 000 000 000 000 000 000 -99 000 000 000 000 000 -99 -99 000 000 -99 -99
-99 000 000 -99 -99 -99 000 -99 -99 000 -99 -99 000 000 000 000 000 000 -99 -99 000 000 000 000 -99 -99 000 000 -99 -99 -99
-99 -99 -99 -99 -99 -99 -99 -99 -99 -99 -99 -99 -99 000 000 000 000 000 -99 000 000 000 000 000 -99 -99 000 -99 -99 -99 000
-99 -99 -99 -99 -99 -99 -99 -99 -99 -99 -99 -99 -99 000 000 000 000 000 000 000 000 000 000 -99 -99 000 000 -99 -99 000 -99
000 -99 -99 -99 000 -99 -99 000 -99 -99 -99 -99 -99 -99 000 000 000 -99 000 -99 -99 000 000 -99 -99 000 000 000 000 000 000
003 002 -99 -99 000 -99 000 -99 -99 -99 -99 -99 -99 -99 -99 000 000 000 -99 -99 000 000 -99 -99 000 000 000 000 000 000 000
001 -99 -99 -99 -99 -99 -99 -99 -99 -99 -99 -99 -99 -99 -99 000 000 -99 -99 -99 -99 -99 -99 -99 000 000 000 000 000 000 000
000 -99 -99 -99 -99 -99 -99 -99 000 000 000 -99 -99 -99 -99 000 -99 -99 -99 -99 -99 -99 -99 000 -99 000 000 000 -99 000 000
-99 -99 -99 -99 -99 -99 -99 -99 000 000 000 -99 -99 -99 -99 000 -99 -99 -99 -99 -99 -99 -99 000 000 -99 -99 -99 000 000 000
-99 -99 -99 -99 -99 -99 -99 -99 000 000 000 -99 000 000 000 000 -99 -99 -99 000 -99 -99 -99 000 000 -99 -99 -99 -99 000 000
-99 -99 -99 -99 -99 -99 -99 -99 000 000 -99 000 000 000 000 000 -99 -99 000 000 -99 -99 000 000 000 000 -99 -99 000 000 000
-99 -99 -99 -99 -99 -99 -99 -99 -99 -99 000 000 000 000 000 000 -99 -99 000 000 -99 -99 -99 000 000 -99 -99 000 -99 -99 -99
-99 -99 -99 -99 -99 -99 -99 -99 -99 -99 000 000 000 000 000 000 -99 000 000 -99 -99 -99 000 000 000 000 000 000 -99 -99 -99
-99 -99 -99 -99 -99 -99 -99 -99 -99 -99 000 000 -99 -99 000 -99 -99 000 000 -99 000 000 000 000 000 000 000 000 000 -99 -99
-99 -99 -99 -99 -99 -99 -99 -99 -99 -99 000 -99 -99 -99 -99 -99 -99 000 -99 -99 -99 000 000 000 000 000 000 000 000 -99 -99
-99 -99 -99 -99 -99 -99 -99 -99 -99 -99 -99 -99 -99 -99 -99 -99 000 -99 -99 -99 -99 -99 000 000 000 000 000 000 -99 -99 -99
-99 -99 -99 -99 -99 -99 -99 -99 -99 -99 -99 -99 -99 -99 -99 -99 -99 -99 -99 -99 -99 -99 -99 000 000 000 000 000 -99 -99 -99
-99 -99 -99 -99 -99 -99 -99 -99 -99 -99 -99 -99 -99 -99 -99 -99 -99 -99 -99 -99 -99 -99 -99 000 000 000 000 -99 -99 -99 -99
000 000 -99 -99 -99 -99 -99 -99 -99 -99 -99 -99 -99 -99 -99 -99 -99 -99 -99 -99 -99 -99 -99 000 000 000 000 -99 -99 -99 -99
000 000 000 000 -99 -99 -99 -99 -99 -99 -99 -99 -99 -99 -99 -99 -99 -99 -99 -99 -99 -99 -99 -99 000 000 000 -99 -99 -99 -99
000 000 000 000 -99 -99 -99 -99 -99 000 000 -99 -99 -99 -99 -99 -99 -99 -99 -99 -99 -99 -99 -99 000 -99 -99 -99 -99 -99 -99
000 000 000 000 000 000 -99 -99 000 000 000 -99 -99 -99 -99 -99 -99 -99 -99 -99 -99 -99 -99 -99 -99 -99 -99 -99 -99 -99 -99
